
<<< setup

Version identifier: 22.1.1.0 | 2022-11-27 | 9160aff4d
Tried aggregator 1 time.
LP Presolve eliminated 1835 rows and 1793 columns.
Aggregator did 2 substitutions.
Reduced LP has 17 rows, 35 columns, and 61 nonzeros.
Presolve time = 0.00 sec. (3.16 ticks)

Iteration log . . .
Iteration:     1   Dual infeasibility =           123.489104
Iteration:    20   Dual objective     =           485.122101
main returns 0

<<< main


<<< done

